SECTION Graph
Nodes 307
Edges 559
E 1 275 5
E 1 277 1
E 1 278 1
E 1 279 6
E 2 279 5
E 3 277 6
E 3 279 1
E 4 278 6
E 4 279 1
E 5 77 1
E 5 155 6
E 5 164 1
E 5 173 6
E 6 77 1
E 6 159 6
E 6 171 1
E 6 177 6
E 7 177 9
E 8 164 6
E 8 173 1
E 9 171 6
E 9 177 1
E 10 11 1
E 10 250 1
E 10 254 1
E 11 255 1
E 11 260 11
E 12 17 13
E 12 263 1
E 12 270 1
E 13 269 1
E 13 270 1
E 13 273 2
E 14 15 1
E 14 230 16
E 14 241 1
E 15 242 1
E 15 250 13
E 16 247 1
E 16 252 1
E 17 251 1
E 17 252 1
E 18 19 1
E 18 264 1
E 18 265 1
E 19 268 1
E 20 265 12
E 20 274 7
E 21 29 1
E 21 226 20
E 21 229 10
E 22 229 1
E 22 231 1
E 23 25 5
E 23 230 1
E 23 232 1
E 23 237 10
E 24 232 10
E 24 237 1
E 24 239 1
E 24 243 14
E 25 26 10
E 25 27 5
E 25 228 1
E 26 28 5
E 26 235 1
E 26 237 5
E 27 28 10
E 27 29 1
E 27 227 1
E 28 30 1
E 28 233 1
E 29 30 10
E 30 229 1
E 30 231 1
E 31 32 2
E 31 219 1
E 31 220 9
E 32 202 21
E 32 221 9
E 33 185 47
E 33 224 1
E 33 226 1
E 34 213 18
E 34 219 9
E 34 220 1
E 34 222 5
E 35 205 30
E 35 221 1
E 35 225 5
E 36 144 14
E 36 158 3
E 36 166 1
E 36 179 12
E 37 174 5
E 37 179 1
E 37 185 1
E 37 215 22
E 38 39 2
E 38 165 5
E 38 172 1
E 38 178 6
E 39 170 5
E 39 176 1
E 39 183 6
E 40 187 6
E 40 194 2
E 40 199 1
E 40 200 1
E 41 147 22
E 41 172 6
E 41 178 1
E 41 184 3
E 42 176 6
E 42 183 1
E 42 188 3
E 42 203 10
E 43 107 1
E 43 108 1
E 43 113 3
E 43 121 8
E 44 120 4
E 44 127 1
E 45 234 9
E 46 234 6
E 46 236 1
E 47 234 1
E 47 236 6
E 48 234 3
E 49 50 10
E 49 64 7
E 49 92 3
E 49 94 3
E 50 65 7
E 50 99 3
E 51 96 10
E 51 99 1
E 51 102 1
E 51 105 5
E 52 53 10
E 52 68 9
E 52 86 3
E 52 88 3
E 53 69 9
E 53 91 3
E 54 87 12
E 54 91 1
E 54 93 6
E 55 56 10
E 55 72 9
E 55 80 3
E 55 81 3
E 56 73 9
E 56 84 3
E 57 84 1
E 57 85 6
E 58 100 46
E 58 168 2
E 59 180 1
E 59 192 6
E 60 61 10
E 60 98 5
E 60 100 2
E 60 146 32
E 61 109 5
E 61 117 1
E 61 162 32
E 62 92 9
E 62 97 3
E 62 100 8
E 63 97 10
E 63 101 5
E 63 106 1
E 63 109 2
E 64 65 10
E 64 89 7
E 64 90 3
E 65 67 7
E 65 96 1
E 66 86 9
E 66 89 3
E 66 90 7
E 67 89 10
E 67 91 6
E 67 93 1
E 68 69 10
E 68 82 7
E 68 83 3
E 69 71 7
E 69 87 1
E 70 80 9
E 70 82 3
E 70 83 7
E 71 82 10
E 71 84 6
E 71 85 1
E 72 73 10
E 72 78 7
E 72 79 3
E 73 75 7
E 74 78 3
E 74 79 7
E 75 78 10
E 76 125 3
E 76 129 1
E 76 135 4
E 76 137 5
E 77 157 6
E 77 175 6
E 79 80 9
E 81 82 6
E 81 84 10
E 83 86 9
E 85 87 7
E 88 89 6
E 88 91 10
E 90 92 7
E 93 96 7
E 94 95 1
E 94 99 10
E 95 97 5
E 95 101 10
E 97 98 2
E 98 109 10
E 99 101 1
E 101 102 1
E 102 103 3
E 102 107 5
E 103 104 1
E 103 111 5
E 104 106 1
E 104 112 5
E 105 107 1
E 105 108 1
E 106 110 2
E 106 114 5
E 107 111 3
E 108 120 8
E 109 110 1
E 110 117 5
E 110 118 5
E 111 112 1
E 111 113 1
E 112 114 1
E 112 115 1
E 113 115 1
E 113 123 8
E 114 116 1
E 114 118 2
E 115 116 1
E 115 126 8
E 116 119 2
E 116 128 8
E 117 122 5
E 117 165 33
E 118 119 1
E 118 122 5
E 119 124 5
E 119 125 5
E 120 121 1
E 121 123 3
E 121 127 4
E 122 124 1
E 122 136 9
E 123 126 1
E 123 130 4
E 124 132 5
E 125 132 5
E 126 128 1
E 126 131 4
E 127 130 3
E 128 129 1
E 128 133 4
E 129 134 4
E 130 131 1
E 130 138 5
E 131 133 1
E 131 141 5
E 132 137 3
E 132 145 9
E 133 134 1
E 133 142 5
E 134 135 1
E 134 143 5
E 135 140 2
E 135 154 14
E 136 139 1
E 136 145 6
E 137 149 9
E 138 141 1
E 138 153 12
E 139 147 6
E 139 172 22
E 140 144 3
E 140 158 14
E 141 142 1
E 141 155 12
E 142 143 1
E 142 157 12
E 143 144 1
E 143 159 12
E 144 161 12
E 145 147 1
E 145 149 3
E 146 148 1
E 146 162 10
E 147 151 3
E 148 150 2
E 148 163 10
E 149 151 1
E 149 154 4
E 150 152 1
E 150 167 10
E 151 156 4
E 151 184 22
E 152 168 10
E 152 169 10
E 153 155 1
E 153 164 6
E 154 156 1
E 154 158 2
E 155 157 1
E 156 160 2
E 156 189 22
E 157 159 1
E 158 160 1
E 159 161 1
E 160 166 3
E 160 193 22
E 161 171 6
E 161 179 14
E 162 163 1
E 162 172 6
E 163 165 1
E 163 167 2
E 165 170 2
E 166 174 7
E 166 198 22
E 167 169 1
E 167 170 1
E 168 180 10
E 169 176 6
E 169 180 10
E 170 182 11
E 171 181 19
E 173 175 1
E 174 209 22
E 175 177 1
E 176 190 10
E 178 183 2
E 178 186 3
E 179 181 1
E 180 182 1
E 181 185 1
E 182 190 5
E 182 202 11
E 183 187 3
E 184 186 1
E 184 189 4
E 186 187 2
E 186 191 4
E 187 188 1
E 188 196 4
E 189 191 1
E 189 193 2
E 190 192 1
E 190 203 6
E 191 194 2
E 191 196 3
E 192 206 6
E 193 194 1
E 193 195 1
E 194 197 1
E 195 197 1
E 195 198 2
E 196 199 2
E 197 200 2
E 197 201 2
E 198 201 1
E 198 209 7
E 199 204 1
E 199 212 10
E 200 204 1
E 200 207 2
E 201 207 2
E 201 210 7
E 202 205 1
E 203 206 1
E 203 212 9
E 204 208 2
E 204 219 18
E 205 236 77
E 206 214 9
E 207 208 1
E 207 211 7
E 208 213 7
E 209 210 1
E 209 215 5
E 210 211 2
E 210 216 5
E 211 213 1
E 211 217 5
E 212 214 1
E 213 218 5
E 214 219 8
E 215 216 1
E 216 217 2
E 217 218 1
E 218 222 18
E 220 221 2
E 220 223 5
E 221 224 5
E 222 223 1
E 223 224 2
E 224 225 1
E 225 226 1
E 226 227 21
E 227 228 5
E 228 230 5
E 231 233 1
E 232 240 14
E 233 235 5
E 235 238 5
E 236 268 47
E 237 238 1
E 238 239 1
E 239 245 14
E 240 241 1
E 240 243 10
E 241 242 1
E 241 244 10
E 242 246 10
E 242 253 13
E 243 244 1
E 243 245 1
E 244 246 1
E 244 249 2
E 245 247 1
E 245 248 2
E 246 248 1
E 246 259 14
E 247 249 1
E 248 251 1
E 248 262 14
E 249 251 1
E 249 252 1
E 250 253 1
E 251 263 13
E 253 254 1
E 253 263 12
E 254 255 1
E 254 259 10
E 255 256 2
E 255 261 10
E 256 257 1
E 256 271 12
E 257 258 1
E 257 272 12
E 258 265 7
E 258 274 12
E 259 261 1
E 259 262 1
E 260 264 1
E 260 265 1
E 261 266 1
E 262 266 1
E 262 267 1
E 263 267 1
E 264 268 1
E 266 269 1
E 267 269 1
E 267 270 1
E 269 271 2
E 271 272 1
E 271 273 1
E 272 274 1
E 272 275 1
E 273 275 1
E 273 277 5
E 274 276 1
E 275 276 1
E 276 278 5
E 1 280 100000
E 2 280 100000
E 3 280 100000
E 4 280 100000
E 5 281 100000
E 6 281 100000
E 7 281 100000
E 8 281 100000
E 9 281 100000
E 10 282 100000
E 11 282 100000
E 12 282 100000
E 13 282 100000
E 14 283 100000
E 15 283 100000
E 16 283 100000
E 17 283 100000
E 18 284 100000
E 19 284 100000
E 20 284 100000
E 21 285 100000
E 22 285 100000
E 23 286 100000
E 24 286 100000
E 25 287 100000
E 26 287 100000
E 27 288 100000
E 28 288 100000
E 29 289 100000
E 30 289 100000
E 31 290 100000
E 32 290 100000
E 33 290 100000
E 34 290 100000
E 35 290 100000
E 36 291 100000
E 37 291 100000
E 38 292 100000
E 39 292 100000
E 40 292 100000
E 41 292 100000
E 42 292 100000
E 43 293 100000
E 44 293 100000
E 45 294 100000
E 46 294 100000
E 47 294 100000
E 48 294 100000
E 49 295 100000
E 50 295 100000
E 51 295 100000
E 52 296 100000
E 53 296 100000
E 54 296 100000
E 55 297 100000
E 56 297 100000
E 57 297 100000
E 58 298 100000
E 59 298 100000
E 60 299 100000
E 61 299 100000
E 62 300 100000
E 63 300 100000
E 64 301 100000
E 65 301 100000
E 66 302 100000
E 67 302 100000
E 68 303 100000
E 69 303 100000
E 70 304 100000
E 71 304 100000
E 72 305 100000
E 73 305 100000
E 74 306 100000
E 75 306 100000
E 76 307 100000
E 77 281 100000
END

SECTION Terminals
Terminals 28
T 280
T 281
T 282
T 283
T 284
T 285
T 286
T 287
T 288
T 289
T 290
T 291
T 292
T 293
T 294
T 295
T 296
T 297
T 298
T 299
T 300
T 301
T 302
T 303
T 304
T 305
T 306
T 307
END

EOF
